 C  H                                   
   1.00000000000000     
    25.0000000000000000    0.0000000000000000    0.0000000000000000
     0.0000000000000000   26.0000000000000000    0.0000000000000000
     0.0000000000000000    0.0000000000000000   27.0000000000000000
   C    H 
     3     8
Direct
  0.4960000000000022  0.5192307692307665  0.5268355651275769
  0.4960000000000022  0.5681447179546311  0.4953727741903506
  0.4960000000000022  0.4703168205069090  0.4953727741903506
  0.4609165476335235  0.5192307692307665  0.5512046874926639
  0.5310834523664738  0.5192307692307665  0.5512046874926639
  0.4960000000000022  0.6027664249933125  0.5183645354343298
  0.4960000000000022  0.4356951134682205  0.5183645354343298
  0.5313305700961735  0.5696133418254803  0.4714539527520216
  0.4606694299038239  0.5696133418254803  0.4714539527520216
  0.4606694299038239  0.4688481966360527  0.4714539527520216
  0.5313305700961735  0.4688481966360527  0.4708983971964660
 
  0.00000000E+00  0.00000000E+00  0.00000000E+00
  0.00000000E+00  0.00000000E+00  0.00000000E+00
  0.00000000E+00  0.00000000E+00  0.00000000E+00
  0.00000000E+00  0.00000000E+00  0.00000000E+00
  0.00000000E+00  0.00000000E+00  0.00000000E+00
  0.00000000E+00  0.00000000E+00  0.00000000E+00
  0.00000000E+00  0.00000000E+00  0.00000000E+00
  0.00000000E+00  0.00000000E+00  0.00000000E+00
  0.00000000E+00  0.00000000E+00  0.00000000E+00
  0.00000000E+00  0.00000000E+00  0.00000000E+00
  0.00000000E+00  0.00000000E+00  0.00000000E+00
