Pt  C  H                                
   1.00000000000000     
     8.4852813742385713    0.0000000000000000    0.0000000000000000
     4.2426406871192857    7.3484692283495336    0.0000000000000000
     0.0000000000000000    0.0000000000000000   49.2376043070340117
   Pt   C    H 
    45     3     7
Selective dynamics
Direct
  0.8888888888888857  0.2222222222222214  0.4061936051007820   F   F   F
  0.2222222222222214  0.2222222222222214  0.4061936051007820   F   F   F
  0.5555555555555571  0.2222222222222214  0.4061936051007820   F   F   F
  0.8888888888888857  0.5555555555555571  0.4061936051007820   F   F   F
  0.2222222222222214  0.5555555555555571  0.4061936051007820   F   F   F
  0.5555555555555571  0.5555555555555571  0.4061936051007820   F   F   F
  0.8888888888888857  0.8888888888888857  0.4061936051007820   F   F   F
  0.2222222222222214  0.8888888888888857  0.4061936051007820   F   F   F
  0.5555555555555571  0.8888888888888857  0.4061936051007820   F   F   F
  0.0000000000000000  0.0000000000000000  0.4530968025503910   F   F   F
  0.3333333333333357  0.0000000000000000  0.4530968025503910   F   F   F
  0.6666666666666643  0.0000000000000000  0.4530968025503910   F   F   F
  0.0000000000000000  0.3333333333333357  0.4530968025503910   F   F   F
  0.3333333333333357  0.3333333333333357  0.4530968025503910   F   F   F
  0.6666666666666643  0.3333333333333357  0.4530968025503910   F   F   F
  0.0000000000000000  0.6666666666666643  0.4530968025503910   F   F   F
  0.3333333333333357  0.6666666666666643  0.4530968025503910   F   F   F
  0.6666666666666643  0.6666666666666643  0.4530968025503910   F   F   F
  0.1104403347817495  0.1112513126233665  0.4994397333501226   F   F   F
  0.4431498928918316  0.1122019071601557  0.5000835932093466   F   F   F
  0.7764937464253094  0.1113612018043852  0.4994523617703521   F   F   F
  0.1114155446879863  0.4438052958859444  0.5000645717116328   F   F   F
  0.4431602979656617  0.4437568449543292  0.5000916180221395   F   F   F
  0.7769013149763424  0.4445116907205389  0.4995272119681147   F   F   F
  0.1104799245778025  0.7773916898560600  0.4994359430907451   F   F   F
  0.4438267930954041  0.7777076793168689  0.4994889701174756   F   F   F
  0.7769233364743471  0.7777200108908531  0.4994798223304784   F   F   F
  0.8869101485518485  0.2219703709881244  0.5458647634700142   F   F   F
  0.2217238956716301  0.2237520947827676  0.5472138314505202   F   F   F
  0.5503727648054451  0.2241338910798589  0.5473495199367164   F   F   F
  0.8870347450058702  0.5555438371778649  0.5460818952792010   F   F   F
  0.2219895934254410  0.5523155245037401  0.5472093380086491   F   F   F
  0.5541304881551099  0.5553963420602201  0.5460963449919802   F   F   F
  0.8874734614561675  0.8889799208895042  0.5457604842086496   F   F   F
  0.2200655925085897  0.8891137512357759  0.5457559075382861   F   F   F
  0.5538785571529701  0.8885620695666532  0.5460658153883173   F   F   F
  0.9970632196722349  0.0002598566986336  0.5934483193121451   F   F   F
  0.3299266747737377  0.9998761809973828  0.5934168431607532   F   F   F
  0.6650737004994269  0.9994162527875119  0.5932890782804066   F   F   F
  0.9960489635237764  0.3332425290312031  0.5935509648801940   F   F   F
  0.3303175743769273  0.3334246092706081  0.5997766404197691   F   F   F
  0.6641904118568007  0.3333340457072964  0.5937850641766786   F   F   F
  0.9964433273474853  0.6673798063050072  0.5934251975253062   F   F   F
  0.3306663240081207  0.6677560518536083  0.5932780179123043   F   F   F
  0.6640661097733727  0.6664585145232351  0.5935849480659883   F   F   F
  0.3109140125198380  0.3329857432611121  0.6429538731061584   T   T   T
  0.2923520918861300  0.5055073645182588  0.6554008888182210   T   T   T
  0.4663380677464914  0.1614736959224246  0.6553802550228625   T   T   T
  0.1827456559076168  0.3320069996108259  0.6450976593177060   T   T   T
  0.1752116785593358  0.6286851564752922  0.6474607415939246   T   T   T
  0.4742027406012710  0.0375079790259676  0.6474262797113468   T   T   T
  0.2723260796835731  0.5020297575850989  0.6774455163002031   T   T   T
  0.4148738873539912  0.5155358443673776  0.6524356469794839   T   T   T
  0.5979766067911001  0.1534468128488626  0.6524137496066160   T   T   T
  0.4430078689557817  0.1644807034974249  0.6771167719940229   T   T   T
 
  0.00000000E+00  0.00000000E+00  0.00000000E+00
  0.00000000E+00  0.00000000E+00  0.00000000E+00
  0.00000000E+00  0.00000000E+00  0.00000000E+00
  0.00000000E+00  0.00000000E+00  0.00000000E+00
  0.00000000E+00  0.00000000E+00  0.00000000E+00
  0.00000000E+00  0.00000000E+00  0.00000000E+00
  0.00000000E+00  0.00000000E+00  0.00000000E+00
  0.00000000E+00  0.00000000E+00  0.00000000E+00
  0.00000000E+00  0.00000000E+00  0.00000000E+00
  0.00000000E+00  0.00000000E+00  0.00000000E+00
  0.00000000E+00  0.00000000E+00  0.00000000E+00
  0.00000000E+00  0.00000000E+00  0.00000000E+00
  0.00000000E+00  0.00000000E+00  0.00000000E+00
  0.00000000E+00  0.00000000E+00  0.00000000E+00
  0.00000000E+00  0.00000000E+00  0.00000000E+00
  0.00000000E+00  0.00000000E+00  0.00000000E+00
  0.00000000E+00  0.00000000E+00  0.00000000E+00
  0.00000000E+00  0.00000000E+00  0.00000000E+00
  0.00000000E+00  0.00000000E+00  0.00000000E+00
  0.00000000E+00  0.00000000E+00  0.00000000E+00
  0.00000000E+00  0.00000000E+00  0.00000000E+00
  0.00000000E+00  0.00000000E+00  0.00000000E+00
  0.00000000E+00  0.00000000E+00  0.00000000E+00
  0.00000000E+00  0.00000000E+00  0.00000000E+00
  0.00000000E+00  0.00000000E+00  0.00000000E+00
  0.00000000E+00  0.00000000E+00  0.00000000E+00
  0.00000000E+00  0.00000000E+00  0.00000000E+00
  0.00000000E+00  0.00000000E+00  0.00000000E+00
  0.00000000E+00  0.00000000E+00  0.00000000E+00
  0.00000000E+00  0.00000000E+00  0.00000000E+00
  0.00000000E+00  0.00000000E+00  0.00000000E+00
  0.00000000E+00  0.00000000E+00  0.00000000E+00
  0.00000000E+00  0.00000000E+00  0.00000000E+00
  0.00000000E+00  0.00000000E+00  0.00000000E+00
  0.00000000E+00  0.00000000E+00  0.00000000E+00
  0.00000000E+00  0.00000000E+00  0.00000000E+00
  0.00000000E+00  0.00000000E+00  0.00000000E+00
  0.00000000E+00  0.00000000E+00  0.00000000E+00
  0.00000000E+00  0.00000000E+00  0.00000000E+00
  0.00000000E+00  0.00000000E+00  0.00000000E+00
  0.00000000E+00  0.00000000E+00  0.00000000E+00
  0.00000000E+00  0.00000000E+00  0.00000000E+00
  0.00000000E+00  0.00000000E+00  0.00000000E+00
  0.00000000E+00  0.00000000E+00  0.00000000E+00
  0.00000000E+00  0.00000000E+00  0.00000000E+00
  0.00000000E+00  0.00000000E+00  0.00000000E+00
  0.00000000E+00  0.00000000E+00  0.00000000E+00
  0.00000000E+00  0.00000000E+00  0.00000000E+00
  0.00000000E+00  0.00000000E+00  0.00000000E+00
  0.00000000E+00  0.00000000E+00  0.00000000E+00
  0.00000000E+00  0.00000000E+00  0.00000000E+00
  0.00000000E+00  0.00000000E+00  0.00000000E+00
  0.00000000E+00  0.00000000E+00  0.00000000E+00
  0.00000000E+00  0.00000000E+00  0.00000000E+00
  0.00000000E+00  0.00000000E+00  0.00000000E+00
